NAME          
ROWS
 N  OBJ
 L  c3
 L  c4
 L  c5
 L  c6
 L  c7
 G  c1
 G  c2
COLUMNS
    ss[1]     c1        1
    ss[1]     OBJ       1000
    ss[2]     c2        1
    ss[2]     OBJ       1000
    s[1]      c3        1
    s[1]      OBJ       -1000
    s[2]      c4        1
    s[2]      OBJ       -1000
    s[3]      c5        1
    s[3]      OBJ       -1000
    s[4]      c6        1
    s[4]      OBJ       -1000
    s[5]      c7        1
    s[5]      OBJ       -1000
    MARKER    'MARKER'                 'INTORG'
    x[1]      c3        495
    x[1]      c4        377
    x[1]      c5        278
    x[1]      c6        929
    x[1]      c7        887
    x[1]      c1        556
    x[1]      c2        413
    x[1]      OBJ       -145
    x[2]      c3        707
    x[2]      c4        556
    x[2]      c5        49
    x[2]      c6        88
    x[2]      c7        133
    x[2]      c1        125
    x[2]      c2        794
    x[2]      OBJ       -292
    x[3]      c3        875
    x[3]      c4        313
    x[3]      c5        491
    x[3]      c6        946
    x[3]      c7        57
    x[3]      c1        736
    x[3]      c2        494
    x[3]      OBJ       -401
    x[4]      c3        928
    x[4]      c4        90
    x[4]      c5        78
    x[4]      c6        525
    x[4]      c7        933
    x[4]      c1        557
    x[4]      c2        821
    x[4]      OBJ       39
    x[5]      c3        542
    x[5]      c4        505
    x[5]      c5        884
    x[5]      c6        836
    x[5]      c7        657
    x[5]      c1        301
    x[5]      c2        348
    x[5]      OBJ       -369
    x[6]      c3        474
    x[6]      c4        18
    x[6]      c5        456
    x[6]      c6        205
    x[6]      c7        737
    x[6]      c1        6
    x[6]      c2        961
    x[6]      OBJ       82
    x[7]      c3        824
    x[7]      c4        101
    x[7]      c5        503
    x[7]      c6        722
    x[7]      c7        110
    x[7]      c1        111
    x[7]      c2        63
    x[7]      OBJ       -367
    x[8]      c3        312
    x[8]      c4        582
    x[8]      c5        291
    x[8]      c6        118
    x[8]      c7        978
    x[8]      c1        16
    x[8]      c2        962
    x[8]      OBJ       -358
    x[9]      c3        266
    x[9]      c4        941
    x[9]      c5        981
    x[9]      c6        832
    x[9]      c7        33
    x[9]      c1        704
    x[9]      c2        799
    x[9]      OBJ       -128
    x[10]     c3        682
    x[10]     c4        459
    x[10]     c5        106
    x[10]     c6        560
    x[10]     c7        707
    x[10]     c1        952
    x[10]     c2        242
    x[10]     OBJ       -177
    x[11]     c3        366
    x[11]     c4        515
    x[11]     c5        472
    x[11]     c6        732
    x[11]     c7        706
    x[11]     c1        408
    x[11]     c2        352
    x[11]     OBJ       -460
    x[12]     c3        999
    x[12]     c4        959
    x[12]     c5        385
    x[12]     c6        268
    x[12]     c7        51
    x[12]     c1        492
    x[12]     c2        337
    x[12]     OBJ       -524
    x[13]     c3        147
    x[13]     c4        850
    x[13]     c5        771
    x[13]     c6        14
    x[13]     c7        622
    x[13]     c1        163
    x[13]     c2        111
    x[13]     OBJ       -690
    x[14]     c3        823
    x[14]     c4        597
    x[14]     c5        744
    x[14]     c6        485
    x[14]     c7        18
    x[14]     c1        938
    x[14]     c2        559
    x[14]     OBJ       9
    x[15]     c3        86
    x[15]     c4        523
    x[15]     c5        238
    x[15]     c6        918
    x[15]     c7        366
    x[15]     c1        315
    x[15]     c2        889
    x[15]     OBJ       -231
    x[16]     c3        841
    x[16]     c4        724
    x[16]     c5        306
    x[16]     c6        596
    x[16]     c7        638
    x[16]     c1        949
    x[16]     c2        595
    x[16]     OBJ       -161
    x[17]     c3        371
    x[17]     c4        256
    x[17]     c5        740
    x[17]     c6        592
    x[17]     c7        658
    x[17]     c1        670
    x[17]     c2        914
    x[17]     OBJ       152
    x[18]     c3        853
    x[18]     c4        831
    x[18]     c5        193
    x[18]     c6        374
    x[18]     c7        885
    x[18]     c1        1000
    x[18]     c2        576
    x[18]     OBJ       -274
    x[19]     c3        68
    x[19]     c4        764
    x[19]     c5        733
    x[19]     c6        464
    x[19]     c7        518
    x[19]     c1        457
    x[19]     c2        312
    x[19]     OBJ       -463
    x[20]     c3        815
    x[20]     c4        940
    x[20]     c5        540
    x[20]     c6        569
    x[20]     c7        215
    x[20]     c1        816
    x[20]     c2        323
    x[20]     OBJ       -272
    x[21]     c3        88
    x[21]     c4        780
    x[21]     c5        122
    x[21]     c6        559
    x[21]     c7        434
    x[21]     c1        357
    x[21]     c2        153
    x[21]     OBJ       -598
    x[22]     c3        935
    x[22]     c4        881
    x[22]     c5        425
    x[22]     c6        971
    x[22]     c7        521
    x[22]     c1        495
    x[22]     c2        888
    x[22]     OBJ       -494
    x[23]     c3        503
    x[23]     c4        280
    x[23]     c5        524
    x[23]     c6        579
    x[23]     c7        414
    x[23]     c1        916
    x[23]     c2        287
    x[23]     OBJ       -149
    x[24]     c3        785
    x[24]     c4        82
    x[24]     c5        182
    x[24]     c6        263
    x[24]     c7        529
    x[24]     c1        852
    x[24]     c2        627
    x[24]     OBJ       1
    x[25]     c3        407
    x[25]     c4        862
    x[25]     c5        989
    x[25]     c6        959
    x[25]     c7        143
    x[25]     c1        614
    x[25]     c2        888
    x[25]     OBJ       -159
    x[26]     c3        172
    x[26]     c4        65
    x[26]     c5        770
    x[26]     c6        326
    x[26]     c7        193
    x[26]     c1        161
    x[26]     c2        634
    x[26]     OBJ       -116
    x[27]     c3        663
    x[27]     c4        346
    x[27]     c5        833
    x[27]     c6        929
    x[27]     c7        573
    x[27]     c1        60
    x[27]     c2        424
    x[27]     OBJ       -497
    x[28]     c3        415
    x[28]     c4        205
    x[28]     c5        219
    x[28]     c6        45
    x[28]     c7        695
    x[28]     c1        382
    x[28]     c2        365
    x[28]     OBJ       31
    x[29]     c3        243
    x[29]     c4        434
    x[29]     c5        587
    x[29]     c6        463
    x[29]     c7        952
    x[29]     c1        373
    x[29]     c2        374
    x[29]     OBJ       -181
    x[30]     c3        760
    x[30]     c4        354
    x[30]     c5        686
    x[30]     c6        391
    x[30]     c7        443
    x[30]     c1        570
    x[30]     c2        85
    x[30]     OBJ       -423
    x[31]     c3        323
    x[31]     c4        128
    x[31]     c5        340
    x[31]     c6        328
    x[31]     c7        556
    x[31]     c1        182
    x[31]     c2        650
    x[31]     OBJ       -381
    x[32]     c3        902
    x[32]     c4        141
    x[32]     c5        169
    x[32]     c6        821
    x[32]     c7        953
    x[32]     c1        934
    x[32]     c2        265
    x[32]     OBJ       -308
    x[33]     c3        783
    x[33]     c4        407
    x[33]     c5        965
    x[33]     c6        506
    x[33]     c7        340
    x[33]     c1        129
    x[33]     c2        711
    x[33]     OBJ       -236
    x[34]     c3        675
    x[34]     c4        499
    x[34]     c5        756
    x[34]     c6        907
    x[34]     c7        52
    x[34]     c1        542
    x[34]     c2        204
    x[34]     OBJ       -463
    x[35]     c3        521
    x[35]     c4        153
    x[35]     c5        123
    x[35]     c6        30
    x[35]     c7        829
    x[35]     c1        767
    x[35]     c2        816
    x[35]     OBJ       388
    x[36]     c3        466
    x[36]     c4        548
    x[36]     c5        6
    x[36]     c6        278
    x[36]     c7        312
    x[36]     c1        964
    x[36]     c2        595
    x[36]     OBJ       103
    x[37]     c3        521
    x[37]     c4        329
    x[37]     c5        554
    x[37]     c6        447
    x[37]     c7        400
    x[37]     c1        896
    x[37]     c2        111
    x[37]     OBJ       17
    x[38]     c3        620
    x[38]     c4        192
    x[38]     c5        686
    x[38]     c6        373
    x[38]     c7        699
    x[38]     c1        350
    x[38]     c2        707
    x[38]     OBJ       -347
    x[39]     c3        533
    x[39]     c4        565
    x[39]     c5        71
    x[39]     c6        764
    x[39]     c7        227
    x[39]     c1        178
    x[39]     c2        774
    x[39]     OBJ       -418
    x[40]     c3        208
    x[40]     c4        898
    x[40]     c5        735
    x[40]     c6        588
    x[40]     c7        680
    x[40]     c1        557
    x[40]     c2        138
    x[40]     OBJ       -676
    x[41]     c3        634
    x[41]     c4        894
    x[41]     c5        295
    x[41]     c6        241
    x[41]     c7        748
    x[41]     c1        975
    x[41]     c2        687
    x[41]     OBJ       -208
    x[42]     c3        483
    x[42]     c4        642
    x[42]     c5        212
    x[42]     c6        523
    x[42]     c7        902
    x[42]     c1        70
    x[42]     c2        131
    x[42]     OBJ       -849
    x[43]     c3        542
    x[43]     c4        302
    x[43]     c5        24
    x[43]     c6        402
    x[43]     c7        454
    x[43]     c1        226
    x[43]     c2        279
    x[43]     OBJ       -130
    x[44]     c3        832
    x[44]     c4        7
    x[44]     c5        553
    x[44]     c6        116
    x[44]     c7        808
    x[44]     c1        356
    x[44]     c2        775
    x[44]     OBJ       34
    x[45]     c3        648
    x[45]     c4        331
    x[45]     c5        613
    x[45]     c6        694
    x[45]     c7        413
    x[45]     c1        404
    x[45]     c2        191
    x[45]     OBJ       -390
    x[46]     c3        441
    x[46]     c4        647
    x[46]     c5        234
    x[46]     c6        423
    x[46]     c7        176
    x[46]     c1        79
    x[46]     c2        217
    x[46]     OBJ       -385
    x[47]     c3        939
    x[47]     c4        858
    x[47]     c5        877
    x[47]     c6        710
    x[47]     c7        435
    x[47]     c1        833
    x[47]     c2        181
    x[47]     OBJ       -572
    x[48]     c3        380
    x[48]     c4        790
    x[48]     c5        491
    x[48]     c6        177
    x[48]     c7        850
    x[48]     c1        616
    x[48]     c2        750
    x[48]     OBJ       62
    x[49]     c3        938
    x[49]     c4        604
    x[49]     c5        713
    x[49]     c6        967
    x[49]     c7        988
    x[49]     c1        575
    x[49]     c2        890
    x[49]     OBJ       -372
    x[50]     c3        640
    x[50]     c4        82
    x[50]     c5        770
    x[50]     c6        138
    x[50]     c7        229
    x[50]     c1        987
    x[50]     c2        776
    x[50]     OBJ       65
    x[51]     c3        721
    x[51]     c4        365
    x[51]     c5        506
    x[51]     c6        684
    x[51]     c7        749
    x[51]     c1        340
    x[51]     c2        484
    x[51]     OBJ       -511
    x[52]     c3        340
    x[52]     c4        94
    x[52]     c5        793
    x[52]     c6        109
    x[52]     c7        891
    x[52]     c1        794
    x[52]     c2        655
    x[52]     OBJ       67
    x[53]     c3        390
    x[53]     c4        830
    x[53]     c5        305
    x[53]     c6        996
    x[53]     c7        81
    x[53]     c1        321
    x[53]     c2        662
    x[53]     OBJ       -132
    x[54]     c3        42
    x[54]     c4        9
    x[54]     c5        282
    x[54]     c6        400
    x[54]     c7        450
    x[54]     c1        337
    x[54]     c2        662
    x[54]     OBJ       47
    x[55]     c3        705
    x[55]     c4        769
    x[55]     c5        375
    x[55]     c6        988
    x[55]     c7        318
    x[55]     c1        580
    x[55]     c2        995
    x[55]     OBJ       100
    x[56]     c3        517
    x[56]     c4        984
    x[56]     c5        2
    x[56]     c6        305
    x[56]     c7        81
    x[56]     c1        920
    x[56]     c2        248
    x[56]     OBJ       61
    x[57]     c3        5
    x[57]     c4        917
    x[57]     c5        756
    x[57]     c6        708
    x[57]     c7        551
    x[57]     c1        425
    x[57]     c2        718
    x[57]     OBJ       -405
    x[58]     c3        315
    x[58]     c4        672
    x[58]     c5        660
    x[58]     c6        371
    x[58]     c7        191
    x[58]     c1        170
    x[58]     c2        321
    x[58]     OBJ       -418
    x[59]     c3        331
    x[59]     c4        189
    x[59]     c5        629
    x[59]     c6        247
    x[59]     c7        668
    x[59]     c1        955
    x[59]     c2        533
    x[59]     OBJ       264
    x[60]     c3        534
    x[60]     c4        232
    x[60]     c5        292
    x[60]     c6        83
    x[60]     c7        488
    x[60]     c1        581
    x[60]     c2        391
    x[60]     OBJ       5
    x[61]     c3        305
    x[61]     c4        676
    x[61]     c5        230
    x[61]     c6        904
    x[61]     c7        959
    x[61]     c1        739
    x[61]     c2        81
    x[61]     OBJ       -692
    x[62]     c3        941
    x[62]     c4        97
    x[62]     c5        871
    x[62]     c6        464
    x[62]     c7        482
    x[62]     c1        622
    x[62]     c2        253
    x[62]     OBJ       -274
    x[63]     c3        165
    x[63]     c4        783
    x[63]     c5        192
    x[63]     c6        855
    x[63]     c7        860
    x[63]     c1        473
    x[63]     c2        879
    x[63]     OBJ       -324
    x[64]     c3        40
    x[64]     c4        500
    x[64]     c5        212
    x[64]     c6        514
    x[64]     c7        483
    x[64]     c1        789
    x[64]     c2        540
    x[64]     OBJ       28
    x[65]     c3        332
    x[65]     c4        271
    x[65]     c5        62
    x[65]     c6        949
    x[65]     c7        313
    x[65]     c1        946
    x[65]     c2        959
    x[65]     OBJ       272
    x[66]     c3        983
    x[66]     c4        480
    x[66]     c5        568
    x[66]     c6        116
    x[66]     c7        763
    x[66]     c1        499
    x[66]     c2        118
    x[66]     OBJ       -658
    x[67]     c3        770
    x[67]     c4        841
    x[67]     c5        602
    x[67]     c6        433
    x[67]     c7        630
    x[67]     c1        666
    x[67]     c2        989
    x[67]     OBJ       -197
    x[68]     c3        264
    x[68]     c4        629
    x[68]     c5        888
    x[68]     c6        75
    x[68]     c7        594
    x[68]     c1        546
    x[68]     c2        781
    x[68]     OBJ       -106
    x[69]     c3        7
    x[69]     c4        162
    x[69]     c5        528
    x[69]     c6        235
    x[69]     c7        294
    x[69]     c1        630
    x[69]     c2        678
    x[69]     OBJ       350
    x[70]     c3        525
    x[70]     c4        191
    x[70]     c5        896
    x[70]     c6        133
    x[70]     c7        817
    x[70]     c1        997
    x[70]     c2        787
    x[70]     OBJ       122
    x[71]     c3        475
    x[71]     c4        316
    x[71]     c5        213
    x[71]     c6        131
    x[71]     c7        486
    x[71]     c1        462
    x[71]     c2        424
    x[71]     OBJ       -377
    x[72]     c3        798
    x[72]     c4        616
    x[72]     c5        232
    x[72]     c6        249
    x[72]     c7        424
    x[72]     c1        750
    x[72]     c2        721
    x[72]     OBJ       238
    x[73]     c3        509
    x[73]     c4        337
    x[73]     c5        801
    x[73]     c6        793
    x[73]     c7        862
    x[73]     c1        841
    x[73]     c2        623
    x[73]     OBJ       -100
    x[74]     c3        438
    x[74]     c4        855
    x[74]     c5        780
    x[74]     c6        904
    x[74]     c7        471
    x[74]     c1        795
    x[74]     c2        833
    x[74]     OBJ       -270
    x[75]     c3        77
    x[75]     c4        935
    x[75]     c5        902
    x[75]     c6        934
    x[75]     c7        694
    x[75]     c1        2
    x[75]     c2        986
    x[75]     OBJ       -622
    x[76]     c3        626
    x[76]     c4        915
    x[76]     c5        80
    x[76]     c6        558
    x[76]     c7        106
    x[76]     c1        522
    x[76]     c2        141
    x[76]     OBJ       -370
    x[77]     c3        30
    x[77]     c4        148
    x[77]     c5        567
    x[77]     c6        476
    x[77]     c7        315
    x[77]     c1        778
    x[77]     c2        66
    x[77]     OBJ       -221
    x[78]     c3        591
    x[78]     c4        105
    x[78]     c5        632
    x[78]     c6        566
    x[78]     c7        174
    x[78]     c1        42
    x[78]     c2        983
    x[78]     OBJ       -395
    x[79]     c3        696
    x[79]     c4        150
    x[79]     c5        578
    x[79]     c6        58
    x[79]     c7        124
    x[79]     c1        714
    x[79]     c2        449
    x[79]     OBJ       -135
    x[80]     c3        84
    x[80]     c4        800
    x[80]     c5        551
    x[80]     c6        764
    x[80]     c7        271
    x[80]     c1        645
    x[80]     c2        654
    x[80]     OBJ       143
    x[81]     c3        346
    x[81]     c4        312
    x[81]     c5        620
    x[81]     c6        548
    x[81]     c7        586
    x[81]     c1        855
    x[81]     c2        458
    x[81]     OBJ       -145
    x[82]     c3        619
    x[82]     c4        879
    x[82]     c5        689
    x[82]     c6        942
    x[82]     c7        273
    x[82]     c1        396
    x[82]     c2        675
    x[82]     OBJ       -493
    x[83]     c3        595
    x[83]     c4        547
    x[83]     c5        602
    x[83]     c6        996
    x[83]     c7        479
    x[83]     c1        768
    x[83]     c2        515
    x[83]     OBJ       38
    x[84]     c3        504
    x[84]     c4        899
    x[84]     c5        164
    x[84]     c6        953
    x[84]     c7        705
    x[84]     c1        392
    x[84]     c2        718
    x[84]     OBJ       -454
    x[85]     c3        971
    x[85]     c4        6
    x[85]     c5        534
    x[85]     c6        565
    x[85]     c7        188
    x[85]     c1        141
    x[85]     c2        486
    x[85]     OBJ       -376
    x[86]     c3        559
    x[86]     c4        454
    x[86]     c5        68
    x[86]     c6        200
    x[86]     c7        530
    x[86]     c1        544
    x[86]     c2        881
    x[86]     OBJ       28
    x[87]     c3        792
    x[87]     c4        213
    x[87]     c5        110
    x[87]     c6        304
    x[87]     c7        1000
    x[87]     c1        847
    x[87]     c2        726
    x[87]     OBJ       2
    x[88]     c3        940
    x[88]     c4        459
    x[88]     c5        485
    x[88]     c6        398
    x[88]     c7        888
    x[88]     c1        263
    x[88]     c2        386
    x[88]     OBJ       -498
    x[89]     c3        281
    x[89]     c4        65
    x[89]     c5        343
    x[89]     c6        461
    x[89]     c7        41
    x[89]     c1        325
    x[89]     c2        796
    x[89]     OBJ       -141
    x[90]     c3        55
    x[90]     c4        320
    x[90]     c5        897
    x[90]     c6        279
    x[90]     c7        640
    x[90]     c1        227
    x[90]     c2        229
    x[90]     OBJ       -397
    x[91]     c3        524
    x[91]     c4        723
    x[91]     c5        907
    x[91]     c6        678
    x[91]     c7        307
    x[91]     c1        765
    x[91]     c2        398
    x[91]     OBJ       -531
    x[92]     c3        561
    x[92]     c4        779
    x[92]     c5        744
    x[92]     c6        823
    x[92]     c7        201
    x[92]     c1        128
    x[92]     c2        335
    x[92]     OBJ       -646
    x[93]     c3        485
    x[93]     c4        786
    x[93]     c5        861
    x[93]     c6        954
    x[93]     c7        424
    x[93]     c1        10
    x[93]     c2        624
    x[93]     OBJ       -689
    x[94]     c3        963
    x[94]     c4        3
    x[94]     c5        319
    x[94]     c6        540
    x[94]     c7        821
    x[94]     c1        973
    x[94]     c2        283
    x[94]     OBJ       -106
    x[95]     c3        290
    x[95]     c4        127
    x[95]     c5        580
    x[95]     c6        718
    x[95]     c7        954
    x[95]     c1        162
    x[95]     c2        182
    x[95]     OBJ       -767
    x[96]     c3        51
    x[96]     c4        214
    x[96]     c5        206
    x[96]     c6        600
    x[96]     c7        185
    x[96]     c1        743
    x[96]     c2        589
    x[96]     OBJ       52
    x[97]     c3        692
    x[97]     c4        84
    x[97]     c5        425
    x[97]     c6        346
    x[97]     c7        78
    x[97]     c1        208
    x[97]     c2        153
    x[97]     OBJ       -369
    x[98]     c3        807
    x[98]     c4        580
    x[98]     c5        775
    x[98]     c6        121
    x[98]     c7        705
    x[98]     c1        223
    x[98]     c2        945
    x[98]     OBJ       -157
    x[99]     c3        852
    x[99]     c4        970
    x[99]     c5        145
    x[99]     c6        635
    x[99]     c7        470
    x[99]     c1        981
    x[99]     c2        272
    x[99]     OBJ       -147
    x[100]    c3        737
    x[100]    c4        636
    x[100]    c5        514
    x[100]    c6        956
    x[100]    c7        828
    x[100]    c1        143
    x[100]    c2        849
    x[100]    OBJ       -642
RHS
    rhs       c3        13164
    rhs       c4        12033
    rhs       c5        12184
    rhs       c6        13178
    rhs       c7        12688
    rhs       c1        13162
    rhs       c2        13388
RANGES
BOUNDS
 LO bounds    ss[1]     0
 PL bounds    ss[1]
 LO bounds    ss[2]     0
 PL bounds    ss[2]
 MI bounds    s[1]
 UP bounds    s[1]      0
 MI bounds    s[2]
 UP bounds    s[2]      0
 MI bounds    s[3]
 UP bounds    s[3]      0
 MI bounds    s[4]
 UP bounds    s[4]      0
 MI bounds    s[5]
 UP bounds    s[5]      0
 BV bounds    x[1]
 BV bounds    x[2]
 BV bounds    x[3]
 BV bounds    x[4]
 BV bounds    x[5]
 BV bounds    x[6]
 BV bounds    x[7]
 BV bounds    x[8]
 BV bounds    x[9]
 BV bounds    x[10]
 BV bounds    x[11]
 BV bounds    x[12]
 BV bounds    x[13]
 BV bounds    x[14]
 BV bounds    x[15]
 BV bounds    x[16]
 BV bounds    x[17]
 BV bounds    x[18]
 BV bounds    x[19]
 BV bounds    x[20]
 BV bounds    x[21]
 BV bounds    x[22]
 BV bounds    x[23]
 BV bounds    x[24]
 BV bounds    x[25]
 BV bounds    x[26]
 BV bounds    x[27]
 BV bounds    x[28]
 BV bounds    x[29]
 BV bounds    x[30]
 BV bounds    x[31]
 BV bounds    x[32]
 BV bounds    x[33]
 BV bounds    x[34]
 BV bounds    x[35]
 BV bounds    x[36]
 BV bounds    x[37]
 BV bounds    x[38]
 BV bounds    x[39]
 BV bounds    x[40]
 BV bounds    x[41]
 BV bounds    x[42]
 BV bounds    x[43]
 BV bounds    x[44]
 BV bounds    x[45]
 BV bounds    x[46]
 BV bounds    x[47]
 BV bounds    x[48]
 BV bounds    x[49]
 BV bounds    x[50]
 BV bounds    x[51]
 BV bounds    x[52]
 BV bounds    x[53]
 BV bounds    x[54]
 BV bounds    x[55]
 BV bounds    x[56]
 BV bounds    x[57]
 BV bounds    x[58]
 BV bounds    x[59]
 BV bounds    x[60]
 BV bounds    x[61]
 BV bounds    x[62]
 BV bounds    x[63]
 BV bounds    x[64]
 BV bounds    x[65]
 BV bounds    x[66]
 BV bounds    x[67]
 BV bounds    x[68]
 BV bounds    x[69]
 BV bounds    x[70]
 BV bounds    x[71]
 BV bounds    x[72]
 BV bounds    x[73]
 BV bounds    x[74]
 BV bounds    x[75]
 BV bounds    x[76]
 BV bounds    x[77]
 BV bounds    x[78]
 BV bounds    x[79]
 BV bounds    x[80]
 BV bounds    x[81]
 BV bounds    x[82]
 BV bounds    x[83]
 BV bounds    x[84]
 BV bounds    x[85]
 BV bounds    x[86]
 BV bounds    x[87]
 BV bounds    x[88]
 BV bounds    x[89]
 BV bounds    x[90]
 BV bounds    x[91]
 BV bounds    x[92]
 BV bounds    x[93]
 BV bounds    x[94]
 BV bounds    x[95]
 BV bounds    x[96]
 BV bounds    x[97]
 BV bounds    x[98]
 BV bounds    x[99]
 BV bounds    x[100]
ENDATA
